
Gurobi 12.0.3 (linux64) logging started Fri Mar 27 09:00:24 2026

Set parameter LogFile to value "/home/solar-wind/WT_Solar_results_bigM100000_thread4/case24_ieee_rts_theta0.1_epsilon0.05_gurobi_seed20000_num_gen38_N_WDR250_load_scaling_factor1_EIFICA_T24_num_Solar5_num_WT10.txt"
Gurobi Optimizer version 12.0.3 build v12.0.3rc0 (linux64 - "Ubuntu 22.04.5 LTS")

CPU model: Intel(R) Xeon(R) Platinum 8378A CPU @ 3.00GHz, instruction set [SSE2|AVX|AVX2|AVX512]
Thread count: 32 physical cores, 64 logical processors, using up to 4 threads

Non-default parameters:
TimeLimit  14400
MIPGap  0.001
Seed  20000
Threads  4

Academic license 2721591 - for non-commercial use only - registered to fa___@mails.neu.edu.cn
Optimize a model with 658436 rows, 2075 columns and 62818024 nonzeros
Model fingerprint: 0x4f61539f
Model has 912 quadratic objective terms
Coefficient statistics:
  Matrix range     [3e-07, 6e+01]
  Objective range  [3e+01, 6e+01]
  QObjective range [4e-03, 2e-02]
  Bounds range     [0e+00, 0e+00]
  RHS range        [4e-02, 1e+03]
Presolve removed 533086 rows and 0 columns (presolve time = 5s)...
Presolve removed 533960 rows and 0 columns
Presolve time: 6.10s
Presolved: 124476 rows, 2949 columns, 3528878 nonzeros
Presolved model has 912 quadratic objective terms
Elapsed ordering time = 9s
Elapsed ordering time = 10s
Ordering time: 17.44s
Elapsed ordering time = 18s
Elapsed ordering time = 20s
Elapsed ordering time = 22s
Elapsed ordering time = 25s
Elapsed ordering time = 28s
Elapsed ordering time = 30s
Ordering time: 33.10s

Barrier statistics:
 Dense cols : 1125
 AA' NZ     : 1.110e+08
 Factor NZ  : 5.786e+08 (roughly 5.0 GB of memory)
 Factor Ops : 8.433e+12 (roughly 50 seconds per iteration)
 Threads    : 4

                  Objective                Residual
Iter       Primal          Dual         Primal    Dual     Compl     Time
   0   5.85242336e+08 -3.04347265e+08  3.75e+04 9.96e+02  9.93e+05    98s
   1   4.87657218e+08 -2.39792929e+08  3.31e+04 8.81e+02  8.79e+05    98s
   2   4.72624033e+08 -2.42212705e+08  3.24e+04 8.62e+02  8.76e+05    99s
   3   4.29156401e+08 -2.78115982e+08  3.04e+04 8.04e+02  8.39e+05    99s
   4   4.06606516e+08 -2.90279467e+08  2.93e+04 7.74e+02  8.20e+05    99s
   5   3.43651342e+08 -2.83551801e+08  2.61e+04 6.85e+02  7.27e+05    99s
   6   3.03773498e+08 -3.05513802e+08  2.40e+04 6.25e+02  6.84e+05    99s
   7   2.63349514e+08 -3.11030457e+08  2.17e+04 5.62e+02  6.16e+05    99s
   8   2.24577678e+08 -3.55974135e+08  1.94e+04 4.96e+02  5.88e+05    99s
   9   1.93406492e+08 -3.96219142e+08  1.74e+04 4.40e+02  5.60e+05   100s
  10   1.69545415e+08 -4.10669493e+08  1.57e+04 3.95e+02  5.05e+05   100s
  11   1.48012839e+08 -4.21999317e+08  1.42e+04 3.54e+02  4.53e+05   100s
  12   1.28410386e+08 -4.69149322e+08  1.28e+04 3.14e+02  4.32e+05   100s
  13   1.08389599e+08 -4.89940270e+08  1.12e+04 2.72e+02  3.76e+05   100s
  14   9.10175988e+07 -5.09818962e+08  9.76e+03 2.35e+02  3.25e+05   100s
  15   7.42737428e+07 -5.31633734e+08  8.28e+03 1.96e+02  2.74e+05   100s
  16   5.93274760e+07 -5.51978972e+08  6.86e+03 1.61e+02  2.26e+05   100s
  17   4.95400715e+07 -5.67383465e+08  5.87e+03 1.37e+02  1.93e+05   100s
  18   3.97346762e+07 -5.83289622e+08  4.83e+03 1.12e+02  1.59e+05   100s
  19   3.27184162e+07 -5.92786560e+08  4.06e+03 9.35e+01  1.33e+05   101s
  20   2.51704781e+07 -6.00919389e+08  3.19e+03 7.31e+01  1.05e+05   101s
  21   1.43154697e+07 -6.06072280e+08  1.86e+03 4.19e+01  7.15e+04   101s
  22   5.78287727e+06 -5.72174402e+08  1.09e+03 1.63e+01  3.26e+04   101s
  23   4.80313617e+06 -5.38535947e+08  9.12e+02 1.33e+01  2.67e+04   101s
  24   3.75113182e+06 -4.89701671e+08  7.03e+02 1.00e+01  2.05e+04   101s
  25   2.92947011e+06 -4.38948074e+08  5.34e+02 7.53e+00  1.56e+04   101s
  26   2.25584831e+06 -3.86534582e+08  3.92e+02 5.49e+00  1.16e+04   101s
  27   1.73002843e+06 -3.34369955e+08  2.80e+02 3.87e+00  8.32e+03   101s
  28   1.23362650e+06 -3.01691603e+08  1.54e+02 2.17e+00  5.72e+03   101s
  29   1.00776986e+06 -2.40788125e+08  9.73e+01 1.36e+00  3.74e+03   102s
  30   8.99179214e+05 -2.10130738e+08  6.42e+01 8.95e-01  2.78e+03   102s
  31   8.03176546e+05 -1.83561101e+08  3.61e+01 4.85e-01  2.04e+03   102s
  32   7.70456687e+05 -1.46787072e+08  2.23e+01 3.04e-01  1.48e+03   102s
  33   7.59382257e+05 -1.28770483e+08  1.71e+01 2.33e-01  1.24e+03   102s
  34   7.53678350e+05 -1.16546252e+08  1.41e+01 1.91e-01  1.09e+03   103s
  35   7.48785073e+05 -1.02890165e+08  1.13e+01 1.51e-01  9.37e+02   103s
  36   7.44443548e+05 -8.68390843e+07  8.07e+00 1.07e-01  7.69e+02   103s
  37   7.43584655e+05 -6.70300023e+07  6.35e+00 8.05e-02  5.83e+02   104s
  38   7.42534673e+05 -5.87443600e+07  4.92e+00 6.51e-02  5.14e+02   105s
  39   7.41605082e+05 -5.49697283e+07  4.10e+00 5.19e-02  4.76e+02   107s
  40   7.37132272e+05 -1.29980374e+07  2.53e-01 1.00e-02  1.08e+02   126s
  41   7.30695095e+05  2.74967147e+05  7.04e-03 8.45e-03  3.55e+00   153s
  42   6.71704779e+05  5.39085675e+05  7.22e-04 1.01e-03  1.03e+00   175s
  43   6.49175966e+05  5.89157760e+05  6.56e-05 9.80e-05  4.68e-01   224s
  44   6.44819148e+05  6.20023411e+05  1.64e-05 5.40e-06  1.93e-01   380s
  45   6.41974457e+05  6.36758280e+05  1.94e-07 6.41e-08  4.07e-02   415s
  46   6.41348612e+05  6.39829592e+05  2.66e-08 8.75e-09  1.18e-02   451s
  47   6.41179587e+05  6.40648792e+05  9.35e-10 3.22e-10  4.14e-03   488s
  48   6.41109208e+05  6.41013810e+05  4.17e-10 2.86e-11  7.44e-04   524s
  49   6.41097309e+05  6.41074705e+05  1.63e-10 9.09e-12  1.76e-04   560s
  50   6.41093933e+05  6.41092113e+05  1.64e-10 2.38e-12  1.42e-05   594s
  51   6.41093641e+05  6.41093639e+05  3.54e-09 3.21e-12  1.90e-08   629s
  52   6.41093641e+05  6.41093639e+05  1.07e-06 7.34e-10  1.76e-08   669s

Barrier solved model in 52 iterations and 668.55 seconds (659.59 work units)
Optimal objective 6.41093641e+05

